20170825 150 0 0 0
20160826 150 0 0 0
20150807 50 0 0 0
20140808 150 0 0 0
20130722 200 0 0 0
20120803 250 0 0 0
20110715 260 3000 0 0
20100827 170 15000 0 0
20100618 250 0 0 0
20090710 100 1000 0 0
20080603 100 10000 0 0
20070412 40 5000 0 0
20060714 0 3200 0 0
20060524 40 0 0 0
20050525 400 0 0 0
20040318 25 3000 0 0
20021107 75 3000 0 0
20020521 100 0 0 0
20010926 50 10000 0 0
20010608 100 0 0 0
